SPARKNaCl/why3-z3/sparknacl-aes.adb_557_40_length_check3_1.smt2
;; produced by z3_gnatprove.drv ;;
(set-info :smt-lib-version 2.5)
(set-info :source |VC generated by SPARK 2014|)
(set-info :category industrial)
(set-info :status unknown)
;;; generated by SMT-LIB2 driver
;;; SMT-LIB2 driver: bit-vectors, common part
;;; SMT-LIB2: integer arithmetic
(declare-datatypes ()
  ((int__ref (int__refqtmk (int__content Int)))))

(declare-sort u32 0)

;; "to_rep"
(declare-fun to_rep (u32) (_ BitVec 32))

;; "of_rep"
(declare-fun of_rep ((_ BitVec 32)) u32)

;; "inversion_axiom"
(assert
  (forall ((x u32)) (! (= (of_rep (to_rep x)) x) :pattern ((to_rep x)) )))

;; "range_axiom"
(assert true)

;; "coerce_axiom"
(assert
  (forall ((x (_ BitVec 32)))
    (! (= (to_rep (of_rep x)) x) :pattern ((to_rep (of_rep x))) )))

(declare-sort map1 0)

;; "has_bounds"
(declare-fun has_bounds (map1
  Int
  Int) Bool)

;; "get"
(declare-fun get (map1
  Int) u32)

(declare-datatypes ()
  ((us_split_fields
   (us_split_fieldsqtmk (rec__ada___sparknacl__aes__aes128_key__f map1)))))

(declare-datatypes ()
  ((us_split_fields__ref
   (us_split_fields__refqtmk (us_split_fields__content us_split_fields)))))

(declare-datatypes ()
  ((us_rep (us_repqtmk (us_split_fields1 us_split_fields)))))

;; "dynamic_invariant"
(define-fun dynamic_invariant ((temp___expr_426 us_rep) (temp___is_init_422 Bool) (temp___skip_constant_423 Bool) (temp___do_toplevel_424 Bool) (temp___do_typ_inv_425 Bool)) Bool
  (has_bounds
    (rec__ada___sparknacl__aes__aes128_key__f
      (us_split_fields1 temp___expr_426))
    0
    3))

(declare-sort byte 0)

;; "to_rep"
(declare-fun to_rep1 (byte) (_ BitVec 8))

;; "of_rep"
(declare-fun of_rep1 ((_ BitVec 8)) byte)

;; "inversion_axiom"
(assert
  (forall ((x byte)) (! (= (of_rep1 (to_rep1 x)) x) :pattern ((to_rep1 x)) )))

;; "range_axiom"
(assert true)

;; "coerce_axiom"
(assert
  (forall ((x (_ BitVec 8)))
    (! (= (to_rep1 (of_rep1 x)) x) :pattern ((to_rep1 (of_rep1 x))) )))

(declare-sort map2 0)

;; "has_bounds"
(declare-fun has_bounds1 (map2
  Int
  Int) Bool)

;; "get"
(declare-fun get1 (map2
  Int) byte)

;; "slide"
(declare-fun slide (map2
  Int
  Int) map2)

;; "slide_eq"
(assert
  (forall ((a map2) (first Int))
    (! (= (slide a first first) a) :pattern ((slide a first first)) )))

;; "slide_def"
(assert
  (forall ((a map2) (old_first Int) (new_first Int))
    (! (and
         (forall ((i Int))
           (! (= (get1 (slide a old_first new_first) i) (get1
                                                          a
                                                          (- i (- new_first old_first)))) :pattern (
           (get1
             (slide a old_first new_first)
             i)) ))
         (forall ((new_last Int))
           (! (=>
                (has_bounds1
                  a
                  old_first
                  (- new_last (- new_first old_first)))
                (has_bounds1
                  (slide a old_first new_first)
                  new_first
                  new_last)) :pattern ((has_bounds1
                                         (slide a old_first new_first)
                                         new_first
                                         new_last)) ))) :pattern ((slide
                                                                    a
                                                                    old_first
                                                                    new_first)) )))

;; "slice"
(declare-fun slice (map2
  Int
  Int) map2)

;; "slice_eq"
(assert
  (forall ((a map2) (f Int) (l Int))
    (! (=> (has_bounds1 a f l) (= (slice a f l) a)) :pattern ((slice a f l)
    (has_bounds1 a f l)) )))

;; "slice_slice"
(assert
  (forall ((a map2) (f1 Int) (l1 Int) (f2 Int) (l2 Int))
    (! (=>
         (and (<= f1 f2) (<= l2 l1))
         (= (slice (slice a f1 l1) f2 l2) (slice a f2 l2))) :pattern (
    (slice
      (slice a f1 l1)
      f2
      l2)) )))

;; "slice_def"
(assert
  (forall ((a map2) (f Int) (l Int))
    (! (forall ((i Int))
         (! (=>
              (and (<= f i) (<= i l))
              (= (get1 (slice a f l) i) (get1 a i))) :pattern ((get1
                                                                 (slice
                                                                   a
                                                                   f
                                                                   l)
                                                                 i)) :pattern (
         (get1
           a
           i)) )) :pattern ((slice a f l)) )))

;; "slice_has_bounds"
(assert
  (forall ((a map2) (f Int) (l Int))
    (! (has_bounds1 (slice a f l) f l) :pattern ((has_bounds1
                                                   (slice a f l)
                                                   f
                                                   l)) )))

(declare-const raw_key map2)

(declare-sort tinteger_32B 0)

;; "tinteger_32B'int"
(declare-fun tinteger_32Bqtint (tinteger_32B) Int)

;; "tinteger_32B'axiom"
(assert
  (forall ((i tinteger_32B))
    (and
      (<= (- 2147483648) (tinteger_32Bqtint i))
      (<= (tinteger_32Bqtint i) 2147483647))))

;; "in_range"
(define-fun in_range ((x Int)) Bool
  (and (<= (- 2147483648) x) (<= x 2147483647)))

;; "to_rep"
(define-fun to_rep2 ((x tinteger_32B)) Int
  (tinteger_32Bqtint x))

;; "of_rep"
(declare-fun of_rep2 (Int) tinteger_32B)

;; "inversion_axiom"
(assert
  (forall ((x tinteger_32B))
    (! (= (of_rep2 (to_rep2 x)) x) :pattern ((to_rep2 x)) )))

;; "range_axiom"
(assert
  (forall ((x tinteger_32B))
    (! (in_range (to_rep2 x)) :pattern ((to_rep2 x)) )))

;; "coerce_axiom"
(assert
  (forall ((x Int))
    (! (=> (in_range x) (= (to_rep2 (of_rep2 x)) x)) :pattern ((to_rep2
                                                                 (of_rep2 x))) )))

(declare-datatypes ()
  ((t (tqtmk (rec__first tinteger_32B)(rec__last tinteger_32B)))))

;; "mk"
(declare-fun mk (Int
  Int) t)

;; "mk_def"
(assert
  (forall ((f Int) (l Int))
    (! (=>
         (in_range f)
         (=>
           (in_range l)
           (and
             (= (to_rep2 (rec__first (mk f l))) f)
             (= (to_rep2 (rec__last (mk f l))) l)))) :pattern ((mk f l)) )))

(declare-datatypes ()
  ((us_t (us_tqtmk (elts map2)(rt t)))))

;; "of_array"
(define-fun of_array ((a map2) (f Int) (l Int)) us_t
  (us_tqtmk a (mk f l)))

(declare-const key__split_fields map1)

;; "key__split_fields'unused"
(define-fun key__split_fieldsqtunused () us_split_fields__ref
  (us_split_fields__refqtmk (us_split_fieldsqtmk key__split_fields)))

;; "Assume"
(assert
  (dynamic_invariant
    (us_repqtmk (us_split_fieldsqtmk key__split_fields))
    false
    false
    true
    true))

;; "Assume"
(assert (has_bounds1 raw_key 0 15))

(declare-const i Int)

;; "i'unused"
(define-fun iqtunused () int__ref
  (int__refqtmk i))

;; "H"
(assert (= i 0))

;; "int__content'result'unused"
(define-fun int__contentqtresultqtunused () Int
  i)

;; "o"
(define-fun o () Bool
  (ite (<= i 3) true false))

;; "infix <='result'unused"
(define-fun infix_lseqqtresultqtunused () Bool
  o)

;; "int__content'result'unused"
(define-fun int__contentqtresultqtunused1 () Int
  i)

;; "o"
(define-fun o1 () Bool
  (ite (<= 0 i) true false))

;; "infix <='result'unused"
(define-fun infix_lseqqtresultqtunused1 () Bool
  o1)

;; "o"
(define-fun o2 () Bool
  (and o1 o))

;; "andb'result'unused"
(define-fun andbqtresultqtunused () Bool
  o2)

;; "H"
(assert (= o2 true))

;; "o"
(define-fun o3 () us_split_fields
  (us_split_fieldsqtmk key__split_fields))

;; "__split_fields__content'result'unused"
(define-fun us_split_fields__contentqtresultqtunused () us_split_fields
  o3)

;; "temp___loop_entry_1016'unused"
(define-fun temp___loop_entry_1016qtunused () us_rep
  (us_repqtmk o3))

;; "__rep'mk'result'unused"
(define-fun us_repqtmkqtresultqtunused () us_rep
  (us_repqtmk o3))

(declare-const key__split_fields1 map1)

(declare-const i1 Int)

;; "i'unused"
(define-fun iqtunused1 () int__ref
  (int__refqtmk i1))

;; "key__split_fields'unused"
(define-fun key__split_fieldsqtunused1 () us_split_fields__ref
  (us_split_fields__refqtmk (us_split_fieldsqtmk key__split_fields1)))

;; "Assume"
(assert
  (= (and (ite (and
                 (dynamic_invariant
                   (us_repqtmk (us_split_fieldsqtmk key__split_fields1))
                   false
                   true
                   true
                   true)
                 (forall ((temp___1017 Int))
                   (=>
                     (and (<= 0 temp___1017) (<= temp___1017 3))
                     (=>
                       (or
                         (< 3 temp___1017)
                         (or (< temp___1017 0) (<= i1 temp___1017)))
                       (= (get key__split_fields1 temp___1017) (get
                                                                 key__split_fields
                                                                 temp___1017))))))
            true
            false) (ite (and (<= 0 i1) (<= i1 3)) true false)) true))

;; "o"
(define-fun o4 () us_split_fields
  (us_split_fieldsqtmk key__split_fields1))

;; "__split_fields__content'result'unused"
(define-fun us_split_fields__contentqtresultqtunused1 () us_split_fields
  o4)

;; "__rep'mk'result'unused"
(define-fun us_repqtmkqtresultqtunused1 () us_rep
  (us_repqtmk o4))

;; "_q 'unused"
(define-fun usq_qtunused () us_split_fields
  o4)

;; "__split_fields'result'unused"
(define-fun us_split_fieldsqtresultqtunused () us_split_fields
  o4)

;; "o"
(define-fun o5 () us_split_fields
  (us_split_fieldsqtmk key__split_fields1))

;; "__split_fields__content'result'unused"
(define-fun us_split_fields__contentqtresultqtunused2 () us_split_fields
  o5)

;; "__rep'mk'result'unused"
(define-fun us_repqtmkqtresultqtunused2 () us_rep
  (us_repqtmk o5))

;; "__split_fields'result'unused"
(define-fun us_split_fieldsqtresultqtunused1 () us_split_fields
  o5)

;; "rec__ada___sparknacl__aes__aes128_key__f'result'unused"
(define-fun rec__ada___sparknacl__aes__aes128_key__fqtresultqtunused 
  () map1
  key__split_fields1)

;; "int__content'result'unused"
(define-fun int__contentqtresultqtunused2 () Int
  i1)

;; "o"
(define-fun o6 () Int
  (* 4 i1))

;; "infix *'result'unused"
(define-fun infix_asqtresultqtunused () Int
  o6)

;; "temp___1007"
(define-fun temp___1007 () Int
  (+ o6 3))

;; "infix +'result'unused"
(define-fun infix_plqtresultqtunused () Int
  temp___1007)

;; "int__content'result'unused"
(define-fun int__contentqtresultqtunused3 () Int
  i1)

;; "temp___1006"
(define-fun temp___1006 () Int
  (* 4 i1))

;; "infix *'result'unused"
(define-fun infix_asqtresultqtunused1 () Int
  temp___1006)

;; "Assert"
(assert
  (=>
    (<= temp___1006 temp___1007)
    (and
      (and (<= 0 temp___1006) (<= temp___1006 15))
      (and (<= 0 temp___1007) (<= temp___1007 15)))))

;; "o"
(define-fun o7 () map2
  (slice raw_key temp___1006 temp___1007))

;; "slice'result'unused"
(define-fun sliceqtresultqtunused () map2
  o7)

;; "temp___1008"
(define-fun temp___1008 () us_t
  (of_array o7 temp___1006 temp___1007))

;; "of_array'result'unused"
(define-fun of_arrayqtresultqtunused () us_t
  temp___1008)

;; "o"
(define-fun o8 () Int
  temp___1006)

;; "first'result'unused"
(define-fun firstqtresultqtunused () Int
  o8)

;; "o"
(define-fun o9 () map2
  o7)

;; "to_array'result'unused"
(define-fun to_arrayqtresultqtunused () map2
  o9)

;; "temp___1009"
(define-fun temp___1009 () map2
  (slide o9 o8 0))

;; "slide'result'unused"
(define-fun slideqtresultqtunused () map2
  temp___1009)

;; "H"
(assert (not (<= temp___1006 temp___1007)))

;; Goal "def'vc"
;; File "sparknacl-aes.ads", line 29, characters 0-0
(assert
  (not (< 3 0)))

(check-sat)
